MILP_speck/line-r3.sol
# Objective value = 1
pro1R1 0
pro2R1 0
pro3R1 0
pro4R1 0
pro5R1 0
pro6R1 0
pro7R1 0
pro8R1 0
pro9R1 0
pro10R1 0
pro11R1 1
pro12R1 0
pro13R1 0
pro14R1 0
pro15R1 0
pro1R2 0
pro2R2 0
pro3R2 0
pro4R2 0
pro5R2 0
pro6R2 0
pro7R2 0
pro8R2 0
pro9R2 0
pro10R2 0
pro11R2 0
pro12R2 0
pro13R2 0
pro14R2 0
pro15R2 0
pro1R3 0
pro2R3 0
pro3R3 0
pro4R3 0
pro5R3 0
pro6R3 0
pro7R3 0
pro8R3 0
pro9R3 0
pro10R3 0
pro11R3 0
pro12R3 0
pro13R3 0
pro14R3 0
pro15R3 0
p0R1 0
p1R1 0
p2R1 0
p3R1 1
p4R1 0
p5R1 0
p6R1 0
p7R1 0
p8R1 0
p9R1 0
p10R1 0
p11R1 0
p12R1 0
p13R1 0
p14R1 0
p15R1 0
p16R1 0
p17R1 0
p18R1 0
p19R1 0
p20R1 0
p21R1 0
p22R1 0
p23R1 0
p24R1 0
p25R1 0
p26R1 1
p27R1 1
p28R1 1
p29R1 0
p30R1 0
p31R1 0
pro0R1 0
pro0R2 0
pro0R3 0
p30R2 0
x4_1_0 0
d16R1 0
p31R2 0
x4_1_1 0
d17R1 0
p16R2 0
x4_1_2 0
d18R1 0
p17R2 0
x4_1_3 0
d19R1 0
p18R2 0
x4_1_4 0
d20R1 0
p19R2 0
x4_1_5 0
d21R1 0
p20R2 0
x4_1_6 0
d22R1 0
p21R2 0
x4_1_7 0
d23R1 0
p22R2 0
x4_1_8 0
d24R1 0
p23R2 0
x4_1_9 0
d25R1 0
p24R2 0
x4_1_10 1
d26R1 1
p25R2 0
x4_1_11 1
d27R1 1
p26R2 1
x4_1_12 0
d28R1 1
p27R2 0
x4_1_13 0
d29R1 0
p28R2 0
x4_1_14 0
d30R1 0
p29R2 0
x4_1_15 0
d31R1 0
x3_1_0 0
p0R2 0
d0R1 0
x3_1_1 0
p1R2 0
d1R1 0
x3_1_2 0
p2R2 0
d2R1 0
x3_1_3 0
p3R2 0
d3R1 0
x3_1_4 0
p4R2 0
d4R1 0
x3_1_5 0
p5R2 0
d5R1 0
x3_1_6 0
p6R2 0
d6R1 0
x3_1_7 0
p7R2 0
d7R1 0
x3_1_8 0
p8R2 0
d8R1 0
x3_1_9 0
p9R2 0
d9R1 0
x3_1_10 1
p10R2 0
d10R1 1
x3_1_11 0
p11R2 0
d11R1 0
x3_1_12 0
p12R2 0
d12R1 0
x3_1_13 0
p13R2 0
d13R1 0
x3_1_14 0
p14R2 0
d14R1 0
x3_1_15 0
p15R2 0
d15R1 0
pro16R1 0
p30R3 0
x4_2_0 0
d16R2 0
p31R3 0
x4_2_1 0
d17R2 0
p16R3 0
x4_2_2 0
d18R2 0
p17R3 0
x4_2_3 0
d19R2 0
p18R3 0
x4_2_4 0
d20R2 0
p19R3 0
x4_2_5 0
d21R2 0
p20R3 0
x4_2_6 0
d22R2 0
p21R3 0
x4_2_7 0
d23R2 0
p22R3 0
x4_2_8 0
d24R2 0
p23R3 0
x4_2_9 0
d25R2 0
p24R3 1
x4_2_10 0
d26R2 1
p25R3 0
x4_2_11 0
d27R2 0
p26R3 0
x4_2_12 0
d28R2 0
p27R3 0
x4_2_13 0
d29R2 0
p28R3 0
x4_2_14 0
d30R2 0
p29R3 0
x4_2_15 0
d31R2 0
x3_2_0 0
p0R3 0
d0R2 0
x3_2_1 0
p1R3 0
d1R2 0
x3_2_2 0
p2R3 0
d2R2 0
x3_2_3 0
p3R3 0
d3R2 0
x3_2_4 0
p4R3 0
d4R2 0
x3_2_5 0
p5R3 0
d5R2 0
x3_2_6 0
p6R3 0
d6R2 0
x3_2_7 0
p7R3 0
d7R2 0
x3_2_8 0
p8R3 1
d8R2 1
x3_2_9 0
p9R3 0
d9R2 0
x3_2_10 0
p10R3 0
d10R2 0
x3_2_11 0
p11R3 0
d11R2 0
x3_2_12 0
p12R3 0
d12R2 0
x3_2_13 0
p13R3 0
d13R2 0
x3_2_14 0
p14R3 0
d14R2 0
x3_2_15 0
p15R3 0
d15R2 0
pro16R2 0
p30R4 0
x4_3_0 0
d16R3 0
p31R4 0
x4_3_1 0
d17R3 0
p16R4 0
x4_3_2 0
d18R3 0
p17R4 0
x4_3_3 0
d19R3 0
p18R4 0
x4_3_4 0
d20R3 0
p19R4 0
x4_3_5 0
d21R3 0
p20R4 0
x4_3_6 0
d22R3 0
p21R4 0
x4_3_7 0
d23R3 0
p22R4 1
x4_3_8 0
d24R3 1
p23R4 0
x4_3_9 0
d25R3 0
p24R4 0
x4_3_10 0
d26R3 0
p25R4 0
x4_3_11 0
d27R3 0
p26R4 0
x4_3_12 0
d28R3 0
p27R4 0
x4_3_13 0
d29R3 0
p28R4 0
x4_3_14 0
d30R3 0
p29R4 1
x4_3_15 1
d31R3 1
x3_3_0 0
p0R4 0
d0R3 0
x3_3_1 0
p1R4 0
d1R3 0
x3_3_2 0
p2R4 0
d2R3 0
x3_3_3 0
p3R4 0
d3R3 0
x3_3_4 0
p4R4 0
d4R3 0
x3_3_5 0
p5R4 0
d5R3 0
x3_3_6 0
p6R4 1
d6R3 1
x3_3_7 0
p7R4 0
d7R3 0
x3_3_8 0
p8R4 0
d8R3 0
x3_3_9 0
p9R4 0
d9R3 0
x3_3_10 0
p10R4 0
d10R3 0
x3_3_11 0
p11R4 0
d11R3 0
x3_3_12 0
p12R4 0
d12R3 0
x3_3_13 0
p13R4 1
d13R3 1
x3_3_14 0
p14R4 0
d14R3 0
x3_3_15 1
p15R4 1
d15R3 1
pro16R3 1
